NAME : pr299
TYPE : OP
DIMENSION : 299
COST_LIMIT : 24096
ROUTE_NODES : 148
ROUTE_SCORE : 9112
ROUTE_COST : 24092
NODE_SEQUENCE_SECTION
1
7
89
91
86
94
87
83
84
99
98
95
96
97
139
140
161
160
211
210
208
207
223
204
205
299
227
226
225
283
282
281
278
279
276
277
232
233
230
228
200
199
201
166
165
164
162
138
137
135
133
132
129
104
130
168
167
237
240
243
242
196
193
247
245
244
249
268
267
265
264
262
260
261
255
254
256
186
185
184
183
182
181
180
120
122
121
125
126
177
176
178
187
189
179
171
172
174
128
123
113
111
61
60
57
44
47
46
45
41
43
40
42
37
38
36
35
32
33
34
67
69
71
74
73
72
77
76
82
79
22
23
21
18
17
16
15
13
12
11
10
9
8
5
6
2
3
4
-1
DEPOT_SECTION
1
-1
EOF
